words_hard_train/4975.qaiger
aag 113 21 0 1 92
2
4
12
14
20
24
28
32
42
46
48
62
76
92
108
124
142
146
148
152
196
227
6 2 4
8 3 5
10 7 9
16 12 15
18 17 15
22 19 20
26 22 24
30 27 29
34 31 32
36 10 35
38 11 34
40 37 39
44 43 12
50 46 48
52 45 50
54 42 13
56 53 55
58 13 14
60 59 17
64 60 62
66 56 65
68 61 63
70 67 69
72 18 21
74 73 23
78 75 77
80 74 76
82 79 81
84 70 82
86 85 81
88 23 25
90 89 27
94 91 93
96 90 92
98 95 97
100 87 98
102 101 97
104 26 28
106 105 31
110 106 109
112 107 108
114 111 113
116 103 114
118 117 113
120 30 33
122 121 35
126 123 125
128 122 124
130 127 129
132 119 130
134 133 129
136 41 135
138 40 134
140 137 139
144 140 142
150 147 149
154 151 152
156 150 153
158 155 157
160 146 148
162 71 83
164 163 85
166 160 165
168 167 151
170 164 149
172 86 99
174 173 101
176 171 175
178 168 177
180 158 178
182 159 179
184 102 115
186 185 117
188 183 186
190 181 189
192 118 131
194 193 133
198 157 196
200 156 197
202 199 201
204 194 202
206 190 205
208 195 203
210 207 209
212 210 200
214 145 213
216 211 201
218 141 143
220 217 219
222 214 221
224 144 212
226 223 225
i0 2 y1[7]
i1 1 x2[7]
i2 2 y1[1]
i3 2 y1[2]
i4 2 y1[3]
i5 2 y1[4]
i6 2 y1[5]
i7 2 y1[6]
i8 1 x2[1]
i9 2 y1[0]
i10 1 x2[0]
i11 1 x2[2]
i12 1 x2[3]
i13 1 x2[4]
i14 1 x2[5]
i15 1 x2[6]
i16 2 y2[4]
i17 2 y2[0]
i18 2 y2[1]
i19 2 y2[2]
i20 2 y2[3]
o0 bv[0]
c
simplified
  <
    add
      add
        2 y1
        -90
      1 x2
    << 3
      2 y2
