words_hard_train/4975.qaiger.qdimacs
p cnf 113 277
a 2 38 46 21 54 24 62 31 0
e 1 3 4 5 6 7 8 9 10 11 12 13 14 15 16 17 18 19 20 22 23 25 26 27 28 29 30 32 33 34 35 36 37 39 40 41 42 43 44 45 47 48 49 50 51 52 53 55 56 57 58 59 60 61 63 64 65 66 67 68 69 70 71 72 73 74 75 76 77 78 79 80 81 82 83 84 85 86 87 88 89 90 91 92 93 94 95 96 97 98 99 100 101 102 103 104 105 106 107 108 109 110 111 112 113 0
-1 -2 3 0
1 -3 0
2 -3 0
1 2 4 0
-1 -4 0
-2 -4 0
3 4 5 0
-3 -5 0
-4 -5 0
-6 7 8 0
6 -8 0
-7 -8 0
8 7 9 0
-8 -9 0
-7 -9 0
9 -10 11 0
-9 -11 0
10 -11 0
-11 -12 13 0
11 -13 0
12 -13 0
13 14 15 0
-13 -15 0
-14 -15 0
15 -16 17 0
-15 -17 0
16 -17 0
-5 17 18 0
5 -18 0
-17 -18 0
5 -17 19 0
-5 -19 0
17 -19 0
18 19 20 0
-18 -20 0
-19 -20 0
21 -6 22 0
-21 -22 0
6 -22 0
-23 -24 25 0
23 -25 0
24 -25 0
22 -25 26 0
-22 -26 0
25 -26 0
-21 6 27 0
21 -27 0
-6 -27 0
26 27 28 0
-26 -28 0
-27 -28 0
6 -7 29 0
-6 -29 0
7 -29 0
29 8 30 0
-29 -30 0
-8 -30 0
-30 -31 32 0
30 -32 0
31 -32 0
-28 32 33 0
28 -33 0
-32 -33 0
30 31 34 0
-30 -34 0
-31 -34 0
33 34 35 0
-33 -35 0
-34 -35 0
-9 10 36 0
9 -36 0
-10 -36 0
36 11 37 0
-36 -37 0
-11 -37 0
37 38 39 0
-37 -39 0
-38 -39 0
-37 -38 40 0
37 -40 0
38 -40 0
39 40 41 0
-39 -41 0
-40 -41 0
-35 -41 42 0
35 -42 0
41 -42 0
42 40 43 0
-42 -43 0
-40 -43 0
11 12 44 0
-11 -44 0
-12 -44 0
44 13 45 0
-44 -45 0
-13 -45 0
45 46 47 0
-45 -47 0
-46 -47 0
-45 -46 48 0
45 -48 0
46 -48 0
47 48 49 0
-47 -49 0
-48 -49 0
43 -49 50 0
-43 -50 0
49 -50 0
50 48 51 0
-50 -51 0
-48 -51 0
-13 -14 52 0
13 -52 0
14 -52 0
52 15 53 0
-52 -53 0
-15 -53 0
-53 54 55 0
53 -55 0
-54 -55 0
53 -54 56 0
-53 -56 0
54 -56 0
55 56 57 0
-55 -57 0
-56 -57 0
51 -57 58 0
-51 -58 0
57 -58 0
58 56 59 0
-58 -59 0
-56 -59 0
-15 16 60 0
15 -60 0
-16 -60 0
60 17 61 0
-60 -61 0
-17 -61 0
61 62 63 0
-61 -63 0
-62 -63 0
-61 -62 64 0
61 -64 0
62 -64 0
63 64 65 0
-63 -65 0
-64 -65 0
59 -65 66 0
-59 -66 0
65 -66 0
66 64 67 0
-66 -67 0
-64 -67 0
20 67 68 0
-20 -68 0
-67 -68 0
-20 -67 69 0
20 -69 0
67 -69 0
68 69 70 0
-68 -70 0
-69 -70 0
-70 -71 72 0
70 -72 0
71 -72 0
73 74 75 0
-73 -75 0
-74 -75 0
75 -76 77 0
-75 -77 0
76 -77 0
-75 76 78 0
75 -78 0
-76 -78 0
77 78 79 0
-77 -79 0
-78 -79 0
-73 -74 80 0
73 -80 0
74 -80 0
35 41 81 0
-35 -81 0
-41 -81 0
81 42 82 0
-81 -82 0
-42 -82 0
-80 82 83 0
80 -83 0
-82 -83 0
83 75 84 0
-83 -84 0
-75 -84 0
-82 74 85 0
82 -85 0
-74 -85 0
-43 49 86 0
43 -86 0
-49 -86 0
86 50 87 0
-86 -87 0
-50 -87 0
85 87 88 0
-85 -88 0
-87 -88 0
-84 88 89 0
84 -89 0
-88 -89 0
-79 -89 90 0
79 -90 0
89 -90 0
79 89 91 0
-79 -91 0
-89 -91 0
-51 57 92 0
51 -92 0
-57 -92 0
92 58 93 0
-92 -93 0
-58 -93 0
91 -93 94 0
-91 -94 0
93 -94 0
90 94 95 0
-90 -95 0
-94 -95 0
-59 65 96 0
59 -96 0
-65 -96 0
96 66 97 0
-96 -97 0
-66 -97 0
78 -98 99 0
-78 -99 0
98 -99 0
-78 98 100 0
78 -100 0
-98 -100 0
99 100 101 0
-99 -101 0
-100 -101 0
-97 -101 102 0
97 -102 0
101 -102 0
-95 102 103 0
95 -103 0
-102 -103 0
97 101 104 0
-97 -104 0
-101 -104 0
103 104 105 0
-103 -105 0
-104 -105 0
-105 -100 106 0
105 -106 0
100 -106 0
72 106 107 0
-72 -107 0
-106 -107 0
105 100 108 0
-105 -108 0
-100 -108 0
70 71 109 0
-70 -109 0
-71 -109 0
108 109 110 0
-108 -110 0
-109 -110 0
-107 110 111 0
107 -111 0
-110 -111 0
-72 -106 112 0
72 -112 0
106 -112 0
111 112 113 0
-111 -113 0
-112 -113 0
-113 0
